100 36 100
36 56 67 30 19 2 58 41 37 28 11 42 19 17 21 78 30 6 94 90 31 2 61 4 96 40 64 98 94 43 56 31 99 24 61 71 78 20 12 15 75 9 19 93 31 49 23 37 44 66 20 46 79 25 95 72 89 45 66 33 2 97 84 78 11 55 56 83 19 71 83 95 81 54 40 12 3 15 1 47 33 22 46 13 47 41 85 88 38 3 73 40 1 10 18 64 17 26 47 37 
